{"lblp_lower": [545.68609679738, 584.450736862204, 586.0132559264638], "cuttingPlaneBendInfo": [{"tot_cut_value": 0, "TOT_gen_cut": 0, "tot_time_opt": 0, "max_time_opt": 0}, {"tot_cut_value": 0, "TOT_gen_cut": 0, "tot_time_opt": 0, "max_time_opt": 0}, {"tot_cut_value": 0, "TOT_gen_cut": 0, "tot_time_opt": 0, "max_time_opt": 0}], "time_compress": [0, 0, 0], "ub_lp": [1162.3999999999999, 655.8495291245205, 586.0132559264636], "prob_sizes_at_start": [{"timeGraph": 102, "ngGraph": 102}, {"timeGraph": 139, "ngGraph": 208}, {"timeGraph": 151, "ngGraph": 262}], "prob_sizes_after_compress": [{"timeGraph": 3, "ngGraph": 81}, {"timeGraph": 18, "ngGraph": 101}, {"timeGraph": 31, "ngGraph": 83}], "prob_sizes_after_split": [{"timeGraph": 139, "ngGraph": 208}, {"timeGraph": 151, "ngGraph": 262}, {"timeGraph": 117, "ngGraph": 173}], "did_compress": [true, true, true], "lp_time_project": [1.5459260940551758, 0.18208789825439453, 0.1408219337463379], "lp_time_LB": [0.10584092140197754, 0.0672311782836914, 0.02614617347717285], "ilp_time": [], "history_of_graphs_by_iter": [], "ROOT_LP_PRIOR_ADDING_CUTS": 586.0132559264638, "OUR_ilp_objective": 586.4000000000003, "OUR_MIP_Lower_Bound": 586.4000000000002, "OUR_ilp_time": 0.01819896697998047, "OUR_gurobi_MILP_str": "Gurobi Optimizer version 12.0.1 build v12.0.1rc0 (mac64[arm] - Darwin 24.5.0 24F74)\n\nCPU model: Apple M1\nThread count: 8 physical cores, 8 logical processors, using up to 8 threads\n\nNon-default parameters:\nTimeLimit  1000\n\nWLS license 2690165 - registered to Optym\nOptimize a model with 23415 rows, 7041 columns and 80567 nonzeros\nModel fingerprint: 0x1bcdc1d2\nVariable types: 202 continuous, 6839 integer (6032 binary)\nCoefficient statistics:\n  Matrix range     [3e-01, 3e+03]\n  Objective range  [2e+00, 1e+02]\n  Bounds range     [1e+00, 3e+03]\n  RHS range        [1e+00, 3e+03]\nUsing branch priorities.\nPresolve removed 23403 rows and 7036 columns\nPresolve time: 0.01s\nPresolved: 12 rows, 5 columns, 28 nonzeros\nVariable types: 4 continuous, 1 integer (1 binary)\nFound heuristic solution: objective 586.4000000\n\nExplored 0 nodes (0 simplex iterations) in 0.02 seconds (0.03 work units)\nThread count was 8 (of 8 available processors)\n\nSolution count 1: 586.4 \n\nOptimal solution found (tolerance 1.00e-04)\nBest objective 5.864000000000e+02, best bound 5.864000000000e+02, gap 0.0000%\n", "jy_opt": {"ParetoEps": 1e-05, "turn_off_time_windows": false, "deactivate_time_graph": false, "deactivate_demand_graph": false, "epsilon": 0.0001, "weight_slack_projector": 1e-05, "weight_compress": 0.01, "num_cust_use": 100, "dem_step_sz": 1, "time_step_sz": 10, "use_compression": 1, "max_iterations_loop_compress_project": 50, "do_round_dist_times": 1, "my_shift_bet_time_win": 0.0001, "num_terms_per_bin_init_construct": 100, "allOneBig_init": 0, "min_inc_2_compress": 1e-05, "save_graph_each_iter": 0, "use_Xpress": 0, "use_ineq": false, "xpress_file_loc": "/Users/julian/Documents/FICO_Xpress_Config/xpauth.xpr", "run_baseline": 0, "verbose": 0, "use_NG_graph": 1, "num_NG": 9, "in_demo_mode": 0, "threshold_split": 0.1, "offset_cost_edge_project": 0, "use_classic_compress": 1, "use_classic_compress_last": 1, "num_thresh_split_projector": 1000, "lplb_solver": 4, "compresss_solver": 0, "proj_solver": 4, "use_julians_custom_lp_solver": 0, "do_ilp": 1, "roundingDiscretization_num_digits_keep": 3, "doExrtraRemovalEdgesLB": 0, "use_gurobi": 1, "max_ILP_time": 1000, "use_fancy_ng_graph": 1, "use_dem_graph": 0, "use_time_graph": 1, "num_multiplys_demand": 0, "DEBUG_ALLOW_DUMB_EDGES": 0, "add_all_ng_split_at_end": 0, "do_split_based_init": 0, "think_compress": [0], "use_delta_in_milp": 1, "use_delta_in_lp": 1, "turn_off_non_active_fg_project": 0, "use_new_valid_ineq": 0, "digit_mult_use": 10, "use_branch_on_g": true, "LAB_MP_ON": 0, "LAB_MP_neigh_use_power": 9, "LAB_MP_num_ineq_use": 10, "do_remove_actions_from_incumbant": true, "ub_use_remove": 586.4, "use_packing_in_construction": 1, "maxVarsAdd_in_ITER": 10, "use_ng_size_init": 0, "do_presolve": 0, "use_diving_ineq": 1, "BEND_MIN_LP_OBJECTIVE_CUT": 0.1, "BEND_USE_RAND": 0, "BEND_MAX_SIZE_CHOOSE_K": 230, "BEND_VAL_STOP_ADDING_CUTS": 100000000, "BEND_MY_SIZES_USE": [9], "NUMERICAL_BEND_OFFSET_COST_CUT": 0.0001, "NUMERICAL_BEND_EPSILON_MULT_PARETO_OBJ": 0.001, "NO_PARETO_NUMERICAL_BEND_OFFSET_COST_CUT": 0, "NO_PARETO_BEND_VAL_STOP_ADDING_CUTS": 1, "NO_PARETO_EPSILON_MAX_VAL_CON": 0.01, "BENDERS_NEIGH_SZ_USE": 9, "Actions_of_given_sol": [], "all_vars_binary": 1, "restore_after_each_step": 1, "use_ng": 1, "compress_solver": 1, "DEBUG_NG_turn_off_CLEAN": false, "max_nodes_split": Infinity}, "output_ilp_solution": {"delta_capRem_0": 60.0, "delta_timeRem_0": 2998.2, "delta_capRem_1": 63.0, "delta_timeRem_1": 3096.8, "delta_capRem_2": 43.0, "delta_timeRem_2": 2142.7, "delta_capRem_3": 42.0, "delta_timeRem_3": 2049.1, "delta_capRem_4": 66.0, "delta_timeRem_4": 3284.8, "delta_capRem_5": 63.0, "delta_timeRem_5": 2812.7, "delta_capRem_6": 45.0, "delta_timeRem_6": 2236.8, "delta_capRem_7": 4.0, "delta_timeRem_7": 263.0, "delta_capRem_8": 7.0, "delta_timeRem_8": 549.0, "delta_capRem_9": 5.0, "delta_timeRem_9": 359.0, "delta_capRem_10": 6.0, "delta_timeRem_10": 452.0, "delta_capRem_11": 22.0, "delta_timeRem_11": 1031.5, "delta_capRem_12": 14.0, "delta_timeRem_12": 745.2, "delta_capRem_13": 23.0, "delta_timeRem_13": 1124.5, "delta_capRem_14": 20.0, "delta_timeRem_14": 934.5, "delta_capRem_15": 27.0, "delta_timeRem_15": 1216.5, "delta_capRem_16": 16.0, "delta_timeRem_16": 839.2, "delta_capRem_17": 37.0, "delta_timeRem_17": 1568.4, "delta_capRem_18": 35.0, "delta_timeRem_18": 1473.4, "delta_capRem_19": 70.0, "delta_timeRem_19": 3380.0, "delta_capRem_20": 2.0, "delta_timeRem_20": 167.0, "delta_capRem_21": 69.0, "delta_timeRem_21": 3287.2, "delta_capRem_22": 38.0, "delta_timeRem_22": 1667.4, "delta_capRem_23": 67.0, "delta_timeRem_23": 3193.6, "delta_capRem_24": 11.0, "delta_timeRem_24": 646.2, "delta_capRem_25": 39.0, "delta_timeRem_25": 1764.6, "delta_capRem_26": 66.0, "delta_timeRem_26": 3100.8, "delta_capRem_27": 41.0, "delta_timeRem_27": 1862.6, "delta_capRem_28": 64.0, "delta_timeRem_28": 2911.6, "delta_capRem_29": 65.0, "delta_timeRem_29": 3006.6, "delta_capRem_30": 54.0, "delta_timeRem_30": 2529.1, "delta_capRem_31": 61.0, "delta_timeRem_31": 2716.4, "delta_capRem_32": 58.0, "delta_timeRem_32": 2624.4, "delta_capRem_33": 43.0, "delta_timeRem_33": 1963.3, "delta_capRem_34": 52.0, "delta_timeRem_34": 2434.1, "delta_capRem_35": 44.0, "delta_timeRem_35": 2056.3, "delta_capRem_36": 51.0, "delta_timeRem_36": 2338.3, "delta_capRem_37": 49.0, "delta_timeRem_37": 2246.3, "delta_capRem_38": 46.0, "delta_timeRem_38": 2151.3, "delta_capRem_39": 29.0, "delta_timeRem_39": 1490.8, "delta_capRem_40": 16.0, "delta_timeRem_40": 392.0, "delta_capRem_41": 18.0, "delta_timeRem_41": 484.0, "delta_capRem_42": 19.0, "delta_timeRem_42": 736.4, "delta_capRem_43": 28.0, "delta_timeRem_43": 1396.4, "delta_capRem_44": 24.0, "delta_timeRem_44": 1204.7, "delta_capRem_45": 27.0, "delta_timeRem_45": 1301.1, "delta_capRem_46": 20.0, "delta_timeRem_46": 829.4, "delta_capRem_47": 1.0, "delta_timeRem_47": 294.0, "delta_capRem_48": 50.0, "delta_timeRem_48": 2342.3, "delta_capRem_49": 22.0, "delta_timeRem_49": 1017.5, "delta_capRem_50": 23.0, "delta_timeRem_50": 1109.7, "delta_capRem_51": 21.0, "delta_timeRem_51": 924.4, "delta_capRem_52": 44.0, "delta_timeRem_52": 2054.2, "delta_capRem_53": 48.0, "delta_timeRem_53": 2149.5, "delta_capRem_54": 49.0, "delta_timeRem_54": 2244.5, "delta_capRem_55": 42.0, "delta_timeRem_55": 1960.2, "delta_capRem_56": 33.0, "delta_timeRem_56": 1584.4, "delta_capRem_57": 39.0, "delta_timeRem_57": 1868.2, "delta_capRem_58": 34.0, "delta_timeRem_58": 1679.4, "delta_capRem_59": 36.0, "delta_timeRem_59": 1775.2, "delta_capRem_60": 56.0, "delta_timeRem_60": 2908.8, "delta_capRem_61": 64.0, "delta_timeRem_61": 3189.8, "delta_capRem_62": 69.0, "delta_timeRem_62": 3284.8, "delta_capRem_63": 55.0, "delta_timeRem_63": 2816.8, "delta_capRem_64": 51.0, "delta_timeRem_64": 2438.7, "delta_capRem_65": 54.0, "delta_timeRem_65": 2721.8, "delta_capRem_66": 70.0, "delta_timeRem_66": 3377.8, "delta_capRem_67": 52.0, "delta_timeRem_67": 2534.0, "delta_capRem_68": 53.0, "delta_timeRem_68": 2629.8, "delta_capRem_69": 24.0, "delta_timeRem_69": 991.6, "delta_capRem_70": 26.0, "delta_timeRem_70": 1086.6, "delta_capRem_71": 57.0, "delta_timeRem_71": 3001.8, "delta_capRem_72": 21.0, "delta_timeRem_72": 898.6, "delta_capRem_73": 62.0, "delta_timeRem_73": 3096.8, "delta_capRem_74": 65.0, "delta_timeRem_74": 3191.8, "delta_capRem_75": 27.0, "delta_timeRem_75": 1181.6, "delta_capRem_76": 13.0, "delta_timeRem_76": 413.0, "delta_capRem_77": 15.0, "delta_timeRem_77": 510.8, "delta_capRem_78": 19.0, "delta_timeRem_78": 704.7, "delta_capRem_79": 20.0, "delta_timeRem_79": 800.0, "delta_capRem_80": 18.0, "delta_timeRem_80": 609.4, "delta_capRem_81": 32.0, "delta_timeRem_81": 1387.5, "delta_capRem_82": 33.0, "delta_timeRem_82": 1480.5, "delta_capRem_83": 35.0, "delta_timeRem_83": 1574.1, "delta_capRem_84": 30.0, "delta_timeRem_84": 1283.3, "delta_capRem_85": 36.0, "delta_timeRem_85": 1669.1, "delta_capRem_86": 3.0, "delta_timeRem_86": 210.8, "delta_capRem_87": 39.0, "delta_timeRem_87": 1764.1, "delta_capRem_88": 41.0, "delta_timeRem_88": 1954.7, "delta_capRem_89": 1.0, "delta_timeRem_89": 111.0, "delta_capRem_90": 40.0, "delta_timeRem_90": 1859.1, "delta_capRem_91": 53.0, "delta_timeRem_91": 2615.4, "delta_capRem_92": 70.0, "delta_timeRem_92": 3381.8, "delta_capRem_93": 51.0, "delta_timeRem_93": 2521.8, "delta_capRem_94": 50.0, "delta_timeRem_94": 2428.2, "delta_capRem_95": 4.0, "delta_timeRem_95": 307.1, "delta_capRem_96": 56.0, "delta_timeRem_96": 2712.4, "delta_capRem_97": 47.0, "delta_timeRem_97": 2331.8, "delta_capRem_98": 59.0, "delta_timeRem_98": 2902.4, "delta_capRem_99": 58.0, "delta_timeRem_99": 2807.4, "act_0_98": 1, "act_1_0": 1, "act_2_3": 1, "act_3_88": 1, "act_4_74": 1, "act_5_31": 1, "act_6_2": 1, "act_7_20": 1, "act_8_10": 1, "act_9_7": 1, "act_10_9": 1, "act_11_14": 1, "act_12_24": 1, "act_13_11": 1, "act_14_16": 1, "act_15_13": 1, "act_16_12": 1, "act_17_18": 1, "act_18_15": 1, "act_19_21": 1, "act_20_101": 1, "act_21_23": 1, "act_22_17": 1, "act_23_26": 1, "act_24_8": 1, "act_25_22": 1, "act_26_29": 1, "act_27_25": 1, "act_28_5": 1, "act_29_28": 1, "act_30_34": 1, "act_31_32": 1, "act_32_30": 1, "act_33_27": 1, "act_34_36": 1, "act_35_33": 1, "act_36_37": 1, "act_37_38": 1, "act_38_35": 1, "act_39_43": 1, "act_40_47": 1, "act_41_40": 1, "act_42_41": 1, "act_43_45": 1, "act_44_50": 1, "act_45_44": 1, "act_46_42": 1, "act_47_101": 1, "act_48_54": 1, "act_49_51": 1, "act_50_49": 1, "act_51_46": 1, "act_52_55": 1, "act_53_52": 1, "act_54_53": 1, "act_55_57": 1, "act_56_39": 1, "act_57_59": 1, "act_58_56": 1, "act_59_58": 1, "act_60_63": 1, "act_61_73": 1, "act_62_61": 1, "act_63_65": 1, "act_64_48": 1, "act_65_68": 1, "act_66_62": 1, "act_67_64": 1, "act_68_67": 1, "act_69_72": 1, "act_70_69": 1, "act_71_60": 1, "act_72_79": 1, "act_73_71": 1, "act_74_1": 1, "act_75_70": 1, "act_76_95": 1, "act_77_76": 1, "act_78_80": 1, "act_79_78": 1, "act_80_77": 1, "act_81_84": 1, "act_82_81": 1, "act_83_82": 1, "act_84_75": 1, "act_85_83": 1, "act_86_89": 1, "act_87_85": 1, "act_88_90": 1, "act_89_101": 1, "act_90_87": 1, "act_91_93": 1, "act_92_4": 1, "act_93_94": 1, "act_94_97": 1, "act_95_86": 1, "act_96_91": 1, "act_97_6": 1, "act_98_99": 1, "act_99_96": 1, "act_100_19": 1, "act_100_66": 1, "act_100_92": 1}, "Actions_of_given_sol": "none just used source and sink terms", "actions_used": ["act_0_98", "act_1_0", "act_2_3", "act_3_88", "act_4_74", "act_5_31", "act_6_2", "act_7_20", "act_8_10", "act_9_7", "act_10_9", "act_11_14", "act_12_24", "act_13_11", "act_14_16", "act_15_13", "act_16_12", "act_17_18", "act_18_15", "act_19_21", "act_20_101", "act_21_23", "act_22_17", "act_23_26", "act_24_8", "act_25_22", "act_26_29", "act_27_25", "act_28_5", "act_29_28", "act_30_34", "act_31_32", "act_32_30", "act_33_27", "act_34_36", "act_35_33", "act_36_37", "act_37_38", "act_38_35", "act_39_43", "act_40_47", "act_41_40", "act_42_41", "act_43_45", "act_44_50", "act_45_44", "act_46_42", "act_47_101", "act_48_54", "act_49_51", "act_50_49", "act_51_46", "act_52_55", "act_53_52", "act_54_53", "act_55_57", "act_56_39", "act_57_59", "act_58_56", "act_59_58", "act_60_63", "act_61_73", "act_62_61", "act_63_65", "act_64_48", "act_65_68", "act_66_62", "act_67_64", "act_68_67", "act_69_72", "act_70_69", "act_71_60", "act_72_79", "act_73_71", "act_74_1", "act_75_70", "act_76_95", "act_77_76", "act_78_80", "act_79_78", "act_80_77", "act_81_84", "act_82_81", "act_83_82", "act_84_75", "act_85_83", "act_86_89", "act_87_85", "act_88_90", "act_89_101", "act_90_87", "act_91_93", "act_92_4", "act_93_94", "act_94_97", "act_95_86", "act_96_91", "act_97_6", "act_98_99", "act_99_96", "act_100_19", "act_100_66", "act_100_92"], "init_default_solution_is_empty": false, "objective_of_initial_sol": 5934.400000000003, "my_paths": "[[100, 19, 21, 23, 26, 29, 28, 5, 31, 32, 30, 34, 36, 37, 38, 35, 33, 27, 25, 22, 17, 18, 15, 13, 11, 14, 16, 12, 24, 8, 10, 9, 7, 20, 101], [100, 66, 62, 61, 73, 71, 60, 63, 65, 68, 67, 64, 48, 54, 53, 52, 55, 57, 59, 58, 56, 39, 43, 45, 44, 50, 49, 51, 46, 42, 41, 40, 47, 101], [100, 92, 4, 74, 1, 0, 98, 99, 96, 91, 93, 94, 97, 6, 2, 3, 88, 90, 87, 85, 83, 82, 81, 84, 75, 70, 69, 72, 79, 78, 80, 77, 76, 95, 86, 89, 101]]"}